c File: flat50_3_0.col
c
c SOURCE: Joseph Culberson (joe@cs.ualberta.ca)
c DESCRIPTION: Quasi-random coloring problem
c              generated with flatness = 0
c                             probability = 0.139
c                             known coloring = 3
c                             random seed = 1001
c              Creation Date:  Tue Jun  9 11:58:47 1998
c Maximum degree = 8 Minimum degree = 1
c p edge 50 115
c cnf created by edge2cnf
p cnf 150 545
-1 -2 0
-1 -3 0
-2 -3 0
1 2 3 0
-4 -5 0
-4 -6 0
-5 -6 0
4 5 6 0
-7 -8 0
-7 -9 0
-8 -9 0
7 8 9 0
-10 -11 0
-10 -12 0
-11 -12 0
10 11 12 0
-13 -14 0
-13 -15 0
-14 -15 0
13 14 15 0
-16 -17 0
-16 -18 0
-17 -18 0
16 17 18 0
-19 -20 0
-19 -21 0
-20 -21 0
19 20 21 0
-22 -23 0
-22 -24 0
-23 -24 0
22 23 24 0
-25 -26 0
-25 -27 0
-26 -27 0
25 26 27 0
-28 -29 0
-28 -30 0
-29 -30 0
28 29 30 0
-31 -32 0
-31 -33 0
-32 -33 0
31 32 33 0
-34 -35 0
-34 -36 0
-35 -36 0
34 35 36 0
-37 -38 0
-37 -39 0
-38 -39 0
37 38 39 0
-40 -41 0
-40 -42 0
-41 -42 0
40 41 42 0
-43 -44 0
-43 -45 0
-44 -45 0
43 44 45 0
-46 -47 0
-46 -48 0
-47 -48 0
46 47 48 0
-49 -50 0
-49 -51 0
-50 -51 0
49 50 51 0
-52 -53 0
-52 -54 0
-53 -54 0
52 53 54 0
-55 -56 0
-55 -57 0
-56 -57 0
55 56 57 0
-58 -59 0
-58 -60 0
-59 -60 0
58 59 60 0
-61 -62 0
-61 -63 0
-62 -63 0
61 62 63 0
-64 -65 0
-64 -66 0
-65 -66 0
64 65 66 0
-67 -68 0
-67 -69 0
-68 -69 0
67 68 69 0
-70 -71 0
-70 -72 0
-71 -72 0
70 71 72 0
-73 -74 0
-73 -75 0
-74 -75 0
73 74 75 0
-76 -77 0
-76 -78 0
-77 -78 0
76 77 78 0
-79 -80 0
-79 -81 0
-80 -81 0
79 80 81 0
-82 -83 0
-82 -84 0
-83 -84 0
82 83 84 0
-85 -86 0
-85 -87 0
-86 -87 0
85 86 87 0
-88 -89 0
-88 -90 0
-89 -90 0
88 89 90 0
-91 -92 0
-91 -93 0
-92 -93 0
91 92 93 0
-94 -95 0
-94 -96 0
-95 -96 0
94 95 96 0
-97 -98 0
-97 -99 0
-98 -99 0
97 98 99 0
-100 -101 0
-100 -102 0
-101 -102 0
100 101 102 0
-103 -104 0
-103 -105 0
-104 -105 0
103 104 105 0
-106 -107 0
-106 -108 0
-107 -108 0
106 107 108 0
-109 -110 0
-109 -111 0
-110 -111 0
109 110 111 0
-112 -113 0
-112 -114 0
-113 -114 0
112 113 114 0
-115 -116 0
-115 -117 0
-116 -117 0
115 116 117 0
-118 -119 0
-118 -120 0
-119 -120 0
118 119 120 0
-121 -122 0
-121 -123 0
-122 -123 0
121 122 123 0
-124 -125 0
-124 -126 0
-125 -126 0
124 125 126 0
-127 -128 0
-127 -129 0
-128 -129 0
127 128 129 0
-130 -131 0
-130 -132 0
-131 -132 0
130 131 132 0
-133 -134 0
-133 -135 0
-134 -135 0
133 134 135 0
-136 -137 0
-136 -138 0
-137 -138 0
136 137 138 0
-139 -140 0
-139 -141 0
-140 -141 0
139 140 141 0
-142 -143 0
-142 -144 0
-143 -144 0
142 143 144 0
-145 -146 0
-145 -147 0
-146 -147 0
145 146 147 0
-148 -149 0
-148 -150 0
-149 -150 0
148 149 150 0
-76 -1 0
-77 -2 0
-78 -3 0
-85 -1 0
-86 -2 0
-87 -3 0
-103 -1 0
-104 -2 0
-105 -3 0
-124 -1 0
-125 -2 0
-126 -3 0
-52 -4 0
-53 -5 0
-54 -6 0
-61 -4 0
-62 -5 0
-63 -6 0
-64 -4 0
-65 -5 0
-66 -6 0
-94 -4 0
-95 -5 0
-96 -6 0
-136 -4 0
-137 -5 0
-138 -6 0
-139 -4 0
-140 -5 0
-141 -6 0
-145 -4 0
-146 -5 0
-147 -6 0
-55 -7 0
-56 -8 0
-57 -9 0
-58 -7 0
-59 -8 0
-60 -9 0
-67 -7 0
-68 -8 0
-69 -9 0
-103 -7 0
-104 -8 0
-105 -9 0
-139 -7 0
-140 -8 0
-141 -9 0
-70 -10 0
-71 -11 0
-72 -12 0
-121 -10 0
-122 -11 0
-123 -12 0
-130 -10 0
-131 -11 0
-132 -12 0
-142 -10 0
-143 -11 0
-144 -12 0
-112 -13 0
-113 -14 0
-114 -15 0
-127 -13 0
-128 -14 0
-129 -15 0
-67 -16 0
-68 -17 0
-69 -18 0
-85 -16 0
-86 -17 0
-87 -18 0
-91 -16 0
-92 -17 0
-93 -18 0
-94 -16 0
-95 -17 0
-96 -18 0
-103 -16 0
-104 -17 0
-105 -18 0
-124 -16 0
-125 -17 0
-126 -18 0
-136 -16 0
-137 -17 0
-138 -18 0
-55 -19 0
-56 -20 0
-57 -21 0
-97 -19 0
-98 -20 0
-99 -21 0
-100 -19 0
-101 -20 0
-102 -21 0
-118 -19 0
-119 -20 0
-120 -21 0
-61 -22 0
-62 -23 0
-63 -24 0
-79 -22 0
-80 -23 0
-81 -24 0
-82 -22 0
-83 -23 0
-84 -24 0
-106 -22 0
-107 -23 0
-108 -24 0
-58 -25 0
-59 -26 0
-60 -27 0
-61 -25 0
-62 -26 0
-63 -27 0
-82 -25 0
-83 -26 0
-84 -27 0
-76 -28 0
-77 -29 0
-78 -30 0
-118 -28 0
-119 -29 0
-120 -30 0
-136 -28 0
-137 -29 0
-138 -30 0
-142 -28 0
-143 -29 0
-144 -30 0
-148 -28 0
-149 -29 0
-150 -30 0
-73 -31 0
-74 -32 0
-75 -33 0
-76 -31 0
-77 -32 0
-78 -33 0
-109 -31 0
-110 -32 0
-111 -33 0
-118 -31 0
-119 -32 0
-120 -33 0
-121 -31 0
-122 -32 0
-123 -33 0
-55 -34 0
-56 -35 0
-57 -36 0
-58 -34 0
-59 -35 0
-60 -36 0
-61 -34 0
-62 -35 0
-63 -36 0
-133 -34 0
-134 -35 0
-135 -36 0
-76 -37 0
-77 -38 0
-78 -39 0
-82 -37 0
-83 -38 0
-84 -39 0
-94 -37 0
-95 -38 0
-96 -39 0
-109 -37 0
-110 -38 0
-111 -39 0
-136 -37 0
-137 -38 0
-138 -39 0
-145 -37 0
-146 -38 0
-147 -39 0
-73 -40 0
-74 -41 0
-75 -42 0
-112 -40 0
-113 -41 0
-114 -42 0
-70 -43 0
-71 -44 0
-72 -45 0
-112 -43 0
-113 -44 0
-114 -45 0
-121 -43 0
-122 -44 0
-123 -45 0
-124 -43 0
-125 -44 0
-126 -45 0
-58 -46 0
-59 -47 0
-60 -48 0
-79 -46 0
-80 -47 0
-81 -48 0
-118 -46 0
-119 -47 0
-120 -48 0
-124 -46 0
-125 -47 0
-126 -48 0
-67 -49 0
-68 -50 0
-69 -51 0
-70 -49 0
-71 -50 0
-72 -51 0
-85 -49 0
-86 -50 0
-87 -51 0
-88 -49 0
-89 -50 0
-90 -51 0
-127 -49 0
-128 -50 0
-129 -51 0
-130 -49 0
-131 -50 0
-132 -51 0
-139 -49 0
-140 -50 0
-141 -51 0
-142 -49 0
-143 -50 0
-144 -51 0
-124 -52 0
-125 -53 0
-126 -54 0
-133 -52 0
-134 -53 0
-135 -54 0
-118 -55 0
-119 -56 0
-120 -57 0
-112 -58 0
-113 -59 0
-114 -60 0
-130 -58 0
-131 -59 0
-132 -60 0
-139 -58 0
-140 -59 0
-141 -60 0
-148 -58 0
-149 -59 0
-150 -60 0
-109 -61 0
-110 -62 0
-111 -63 0
-121 -61 0
-122 -62 0
-123 -63 0
-115 -64 0
-116 -65 0
-117 -66 0
-127 -64 0
-128 -65 0
-129 -66 0
-136 -64 0
-137 -65 0
-138 -66 0
-133 -67 0
-134 -68 0
-135 -69 0
-103 -70 0
-104 -71 0
-105 -72 0
-142 -70 0
-143 -71 0
-144 -72 0
-115 -73 0
-116 -74 0
-117 -75 0
-133 -73 0
-134 -74 0
-135 -75 0
-121 -76 0
-122 -77 0
-123 -78 0
-136 -76 0
-137 -77 0
-138 -78 0
-109 -79 0
-110 -80 0
-111 -81 0
-130 -79 0
-131 -80 0
-132 -81 0
-103 -85 0
-104 -86 0
-105 -87 0
-109 -85 0
-110 -86 0
-111 -87 0
-121 -85 0
-122 -86 0
-123 -87 0
-130 -88 0
-131 -89 0
-132 -90 0
-136 -88 0
-137 -89 0
-138 -90 0
-148 -88 0
-149 -89 0
-150 -90 0
-103 -91 0
-104 -92 0
-105 -93 0
-115 -91 0
-116 -92 0
-117 -93 0
-133 -91 0
-134 -92 0
-135 -93 0
-142 -91 0
-143 -92 0
-144 -93 0
-118 -94 0
-119 -95 0
-120 -96 0
-124 -94 0
-125 -95 0
-126 -96 0
-127 -94 0
-128 -95 0
-129 -96 0
-109 -97 0
-110 -98 0
-111 -99 0
-130 -97 0
-131 -98 0
-132 -99 0
-136 -100 0
-137 -101 0
-138 -102 0
